c turning on binary mode checking
c parsing input formula with 202048 variables and 780985 clauses
c finished parsing, read 2419575 bytes from proof file
c detected empty clause; start verification via backward checking
c 3290 of 780985 clauses in core                            
c 972 of 93633 lemmas in core using 16417 resolution steps
c 0 RAT lemmas in core; 168 redundant literals in core lemmas
s VERIFIED
c verification time: 0.962 seconds
